p cnf 59 168
-3 -4 -5 0
3 4 -5 0
-3 4 5 0
3 -4 5 0
2 5 -6 0
-2 -5 -6 0
2 -5 6 0
-2 5 6 0
-7 1 0
-7 -6 0
-1 6 7 0
-10 11 0
10 11 0
-12 -9 0
-12 -11 0
9 11 12 0
-13 -8 0
-13 -12 0
8 12 13 0
-15 14 0
-15 -14 0
-1 -15 -16 0
1 15 -16 0
-1 15 16 0
1 -15 16 0
-18 -16 0
-18 17 0
16 -17 18 0
21 -19 0
21 20 0
19 -20 -21 0
-19 21 -22 0
19 -21 -22 0
-19 -21 22 0
19 21 22 0
-23 18 0
-23 -22 0
-18 22 23 0
-14 -5 -24 0
14 5 -24 0
-14 5 24 0
14 -5 24 0
-26 -9 0
-26 -16 0
9 16 26 0
-28 26 0
-28 -27 0
-26 27 28 0
29 -25 0
29 -28 0
25 28 -29 0
-24 29 -30 0
24 -29 -30 0
-24 -29 30 0
24 29 30 0
-9 17 -31 0
9 -17 -31 0
-9 -17 31 0
9 17 31 0
-32 -27 -33 0
32 27 -33 0
-32 27 33 0
32 -27 33 0
34 33 0
34 -25 0
-33 25 -34 0
31 -34 -35 0
-31 34 -35 0
31 34 35 0
-31 -34 35 0
-30 -35 -36 0
30 35 -36 0
-30 35 36 0
30 -35 36 0
37 -23 0
37 36 0
23 -36 -37 0
-13 -37 -38 0
13 37 -38 0
-13 37 38 0
13 -37 38 0
-39 17 0
-39 2 0
-17 -2 39 0
38 39 -40 0
-38 -39 -40 0
38 -39 40 0
-38 39 40 0
-7 -40 -41 0
7 40 -41 0
-7 40 41 0
7 -40 41 0
42 10 -43 0
-42 -10 -43 0
42 -10 43 0
-42 10 43 0
44 41 0
44 43 0
-41 -43 -44 0
45 -33 0
45 4 0
33 -4 -45 0
-46 -9 -47 0
46 9 -47 0
-46 9 47 0
46 -9 47 0
48 45 0
48 -47 0
-45 47 -48 0
-49 18 0
-49 -46 0
-18 46 49 0
-50 48 0
-50 -49 0
-48 49 50 0
51 32 0
51 -9 0
-32 9 -51 0
52 51 0
52 -32 0
-51 32 -52 0
53 26 0
53 -33 0
-26 33 -53 0
54 52 0
54 -53 0
-52 53 -54 0
50 -54 -55 0
-50 54 -55 0
50 54 55 0
-50 -54 55 0
44 55 -56 0
-44 -55 -56 0
44 -55 56 0
-44 55 56 0
-57 -4 0
-57 11 0
4 -11 57 0
11 57 -58 0
-11 -57 -58 0
11 -57 58 0
-11 57 58 0
-59 -56 0
-59 -58 0
56 58 59 0
39 17 37 -46 0
-51 35 49 -44 0
-48 57 41 11 0
-29 -53 16 22 -25 -9 0
-44 -46 0
-49 24 0
-29 47 -12 0
19 38 0
-29 22 28 57 -48 9 0
-46 24 1 -23 -10 -56 0
-58 5 0
53 -40 0
-45 -12 -52 8 23 -32 0
55 26 59 -49 -35 56 0
48 -33 0
-51 -26 0
-14 -6 36 52 10 54 0
11 59 8 53 4 0
51 38 18 -37 25 14 0
2 43 55 45 0
34 8 30 0
39 9 47 0
59 0
